\* Problem: Unknown *\

Maximize
 obj: + xp_0_0 + xp_0_1 + xp_0_2 + xp_0_3 + xp_0_4 + xp_0_5 + xp_1_0
 + xp_1_1 + xp_2_0 + xp_2_1 + xp_2_2 + xp_2_3 + xp_3_0 + xp_3_1 + xp_3_2
 + xp_3_3 + xp_4_0 + xp_5_0 + xp_5_1 + xp_5_2 + xp_6_0 + xp_6_1 + xp_6_2
 + xp_7_0 + xp_7_1 + xp_8_0 + xp_8_1 + xp_9_0 + xp_10_0 + xp_10_1
 + xp_11_0 + xp_11_1 + xp_11_2 + xp_11_3 + xp_12_0 + xp_13_0 + xp_13_1
 + xp_14_0 + xp_14_1 + xp_15_0 + xp_16_0 + xp_16_1 + xp_17_0 + xp_17_1
 + xp_17_2 + xp_17_3 + xp_17_4 + xp_17_5 + xp_18_0 + xp_18_1 + xp_18_2
 + xp_18_3 + xp_18_4 + xp_18_5 + xp_19_0 + xp_19_1 + xp_19_2 + xp_19_3
 + xp_20_0 + xp_20_1 + xp_20_2 + xp_20_3 + xp_21_0 + xp_21_1 + xp_21_2
 + xp_21_3 + xp_22_0 + xp_22_1 + xp_22_2 + xp_22_3 + xp_22_4 + xp_22_5
 + xp_22_6 + xp_23_0 + xp_23_1 + xp_23_2 + xp_23_3

Subject To
 r_1: 0 xp_0_0 <= 30
 r_2: + xp_23_3 + xp_22_2 + xp_18_3 + xp_5_2 + xp_2_3
 <= 29.0077821011673
 r_3: + xp_21_2 + xp_18_4 + xp_18_2 + xp_6_1 <= 30
 r_4: + xp_18_5 + xp_17_1 + xp_15_0 + xp_3_3 <= 30
 r_5: + xp_18_0 <= 27.6720505617978
 r_6: + xp_18_1 <= 30
 r_7: + xp_20_3 <= 30
 r_8: + xp_22_3 + xp_11_2 + xp_5_1 + xp_3_2 + xp_2_2 <= 29.0077821011673
 r_9: + xp_23_2 + xp_11_1 + xp_3_1 <= 30
 r_10: + xp_17_4 + xp_3_0 <= 30
 r_11: + xp_18_4 + xp_18_1 + xp_11_3 + xp_3_3 <= 27.6720505617978
 r_12: + xp_11_0 <= 30
 r_13: 0 xp_0_0 <= 30
 r_14: + xp_21_3 + xp_14_0 + xp_0_4 + xp_0_1 <= 29.0077821011673
 r_15: + xp_21_0 <= 30
 r_16: + xp_22_1 + xp_21_1 + xp_19_2 + xp_0_3 + xp_0_2 <= 30
 r_17: + xp_0_0 <= 27.6720505617978
 r_18: + xp_21_2 + xp_4_0 <= 30
 r_19: + xp_19_0 <= 30
 r_20: + xp_19_3 + xp_19_1 + xp_14_1 + xp_0_5 <= 30
 r_21: + xp_20_1 <= 29.0077821011673
 r_22: + xp_21_3 + xp_7_1 <= 29.0077821011673
 r_23: + xp_23_3 + xp_22_4 + xp_22_3 + xp_22_2 <= 29.0077821011673
 r_24: + xp_18_3 + xp_17_3 + xp_6_2 + xp_3_2 + xp_0_4
 <= 29.0077821011673
 r_25: 0 xp_0_0 <= 29.0077821011673
 r_26: + xp_0_5 + xp_0_1 <= 27.6720505617978
 r_27: + xp_11_2 <= 29.0077821011673
 r_28: + xp_19_3 + xp_10_1 <= 29.0077821011673
 r_29: + xp_20_2 <= 30
 r_30: + xp_2_0 <= 29.0077821011673
 r_31: + xp_23_2 + xp_18_2 + xp_6_1 + xp_3_1 <= 30
 r_32: + xp_2_1 <= 30
 r_33: + xp_11_1 + xp_2_3 <= 30
 r_34: + xp_18_4 + xp_2_2 <= 30
 r_35: 0 xp_0_0 <= 30
 r_36: + xp_9_0 <= 29.0077821011673
 r_37: + xp_21_1 + xp_13_1 + xp_8_1 <= 30
 r_38: + xp_23_3 + xp_1_1 <= 30
 r_39: + xp_19_2 + xp_17_2 + xp_0_3 <= 30
 r_40: + xp_0_2 <= 27.6720505617978
 r_41: + xp_12_0 <= 29.0077821011673
 r_42: + xp_21_1 <= 30
 r_43: + xp_22_5 + xp_16_0 <= 30
 r_44: + xp_23_2 + xp_23_1 + xp_16_1 <= 30
 r_45: + xp_17_3 + xp_3_2 + xp_3_1 <= 30
 r_46: + xp_18_3 + xp_18_2 + xp_0_4 <= 27.6720505617978
 r_47: + xp_22_6 + xp_16_1 + xp_13_1 <= 30
 r_48: + xp_13_0 <= 30
 r_49: + xp_17_5 <= 30
 r_50: 0 xp_0_0 <= 27.6720505617978
 r_51: + xp_8_1 + xp_1_1 <= 30
 r_52: + xp_8_0 <= 30
 r_53: + xp_1_0 <= 30
 r_54: + xp_18_5 + xp_0_3 <= 27.6720505617978
 r_55: 0 xp_0_0 <= 30
 r_56: + xp_19_2 <= 30
 r_57: + xp_22_1 <= 27.6720505617978
 r_58: + xp_22_4 + xp_17_3 + xp_6_2 + xp_5_0 <= 27.6720505617978
 r_59: + xp_22_0 + xp_17_2 <= 27.6720505617978
 r_60: + xp_23_1 + xp_22_5 + xp_6_0 <= 27.6720505617978
 r_61: + xp_23_0 + xp_22_6 + xp_17_5 <= 27.6720505617978
 r_62: + xp_17_0 <= 27.6720505617978
 r_63: + xp_23_3 + xp_22_2 + xp_17_1 + xp_11_3 + xp_6_1 + xp_5_2
 + xp_3_3 <= 27.6720505617978
 r_64: + xp_23_2 + xp_22_3 + xp_17_4 + xp_5_1 <= 27.6720505617978
 r_65: + xp_20_1 + xp_19_3 + xp_14_1 + xp_10_1 + xp_7_1 + xp_2_1
 + xp_0_5 <= 29.0077821011673
 r_66: + xp_20_2 + xp_7_0 <= 30
 r_67: + xp_20_3 + xp_19_1 + xp_10_0 <= 30
 r_68: + xp_20_0 <= 30

Bounds
 0 <= xp_0_0 <= 28.0114506282956
 0 <= xp_0_1 <= 10.873746508967
 0 <= xp_0_2 <= 13.8836901588086
 0 <= xp_0_3 <= 3.9319014295627
 0 <= xp_0_4 <= 3.9319014295627
 0 <= xp_0_5 <= 1.84391555944217
 0 <= xp_1_0 <= 19.4335506780199
 0 <= xp_1_1 <= 15.5468405424159
 0 <= xp_2_0 <= 23.5372055121299
 0 <= xp_2_1 <= 0.822533321079518
 0 <= xp_2_2 <= 3.00994364984162
 0 <= xp_2_3 <= 7.12261025523921
 0 <= xp_3_0 <= 23.2750755395525
 0 <= xp_3_1 <= 6.57125479734852
 0 <= xp_3_2 <= 1.65410249299586
 0 <= xp_3_3 <= 0.551367497665287
 0 <= xp_4_0 <= 26.0319190477662
 0 <= xp_5_0 <= 17.3546126985108
 0 <= xp_5_1 <= 2.8924354497518
 0 <= xp_5_2 <= 5.7848708995036
 0 <= xp_6_0 <= 15.6191514286597
 0 <= xp_6_1 <= 5.20638380955324
 0 <= xp_6_2 <= 2.60319190477662
 0 <= xp_7_0 <= 19.9578046032874
 0 <= xp_7_1 <= 2.49472557541093
 0 <= xp_8_0 <= 17.9330997884612
 0 <= xp_8_1 <= 2.24163747355765
 0 <= xp_9_0 <= 18.710441815582
 0 <= xp_10_0 <= 16.6315038360728
 0 <= xp_10_1 <= 2.07893797950911
 0 <= xp_11_0 <= 24.0795491987329
 0 <= xp_11_1 <= 12.0397745993665
 0 <= xp_11_2 <= 12.0397745993665
 0 <= xp_11_3 <= 6.01988729968323
 0 <= xp_12_0 <= 17.5715453572422
 0 <= xp_13_0 <= 13.2871253472973
 0 <= xp_13_1 <= 3.79632152779924
 0 <= xp_14_0 <= 9.03886078047438
 0 <= xp_14_1 <= 7.2310886243795
 0 <= xp_15_0 <= 16.1072499108053
 0 <= xp_16_0 <= 13.739068386321
 0 <= xp_16_1 <= 1.71738354829013
 0 <= xp_17_0 <= 28.1108750869372
 0 <= xp_17_1 <= 2.01566294410214
 0 <= xp_17_2 <= 6.04698883230641
 0 <= xp_17_3 <= 2.01566294410214
 0 <= xp_17_4 <= 2.01566294410214
 0 <= xp_17_5 <= 5.02560659394375
 0 <= xp_18_0 <= 22.832156311591
 0 <= xp_18_1 <= 12.0397745993665
 0 <= xp_18_2 <= 1.79873028537075
 0 <= xp_18_3 <= 3.00994364984162
 0 <= xp_18_4 <= 1.79873028537075
 0 <= xp_18_5 <= 1.79873028537075
 0 <= xp_19_0 <= 28.8339899692625
 0 <= xp_19_1 <= 6.97798848275162
 0 <= xp_19_2 <= 3.48899424137581
 0 <= xp_19_3 <= 3.48899424137581
 0 <= xp_20_0 <= 27.3877662244993
 0 <= xp_20_1 <= 6.61643405153264
 0 <= xp_20_2 <= 6.31816067560794
 0 <= xp_20_3 <= 1.65410851288316
 0 <= xp_21_0 <= 30
 0 <= xp_21_1 <= 4.36576072713817
 0 <= xp_21_2 <= 2.91050715142545
 0 <= xp_21_3 <= 2.91050715142545
 0 <= xp_22_0 <= 20.147623689621
 0 <= xp_22_1 <= 1.27447636010324
 0 <= xp_22_2 <= 3.00994364984162
 0 <= xp_22_3 <= 5.55889637004809
 0 <= xp_22_4 <= 4.28442000994485
 0 <= xp_22_5 <= 1.27447636010324
 0 <= xp_22_6 <= 3.00994364984162
 0 <= xp_23_0 <= 19.6866327599859
 0 <= xp_23_1 <= 11.5787836697313
 0 <= xp_23_2 <= 6.01988729968323
 0 <= xp_23_3 <= 1.27447636010324

End
